100
128
20
27
51
38
44
53
1
30
47
43
39
55
50
24
5
28
16
42
40
17
62
14
17
54
37
21
2
23
12
57
43
21
53
34
16
47
32
1
43
48
61
13
39
56
62
15
1
18
29
1
50
21
1
33
54
31
17
15
4
56
28
2
22
28
20
2
32
30
26
26
29
19
63
57
1
45
14
17
21
50
30
3
22
37
40
59
2
19
44
29
15
43
1
48
36
1
42
6
38
4